* Problem:    SC205-pow2-prescaled
* Class:      LP
* Rows:       204
* Columns:    316
* Non-zeros:  664
* Format:     Free MPS
*
NAME SC205-pow2-prescaled
ROWS
 N R0000000
 E R0000001
 E R0000002
 E R0000003
 E R0000004
 E R0000005
 E R0000006
 E R0000007
 E R0000008
 E R0000009
 E R0000010
 E R0000011
 E R0000012
 E R0000013
 E R0000014
 E R0000015
 E R0000016
 E R0000017
 E R0000018
 E R0000019
 E R0000020
 E R0000021
 E R0000022
 E R0000023
 E R0000024
 E R0000025
 E R0000026
 E R0000027
 E R0000028
 E R0000029
 E R0000030
 E R0000031
 E R0000032
 E R0000033
 E R0000034
 E R0000035
 E R0000036
 E R0000037
 E R0000038
 E R0000039
 E R0000040
 E R0000041
 E R0000042
 E R0000043
 E R0000044
 E R0000045
 E R0000046
 E R0000047
 E R0000048
 E R0000049
 E R0000050
 E R0000051
 E R0000052
 E R0000053
 E R0000054
 E R0000055
 E R0000056
 E R0000057
 E R0000058
 E R0000059
 E R0000060
 E R0000061
 E R0000062
 E R0000063
 E R0000064
 E R0000065
 E R0000066
 E R0000067
 E R0000068
 E R0000069
 E R0000070
 E R0000071
 E R0000072
 E R0000073
 E R0000074
 E R0000075
 E R0000076
 E R0000077
 E R0000078
 E R0000079
 E R0000080
 E R0000081
 E R0000082
 E R0000083
 E R0000084
 E R0000085
 E R0000086
 E R0000087
 E R0000088
 E R0000089
 E R0000090
 E R0000091
 E R0000092
 E R0000093
 E R0000094
 E R0000095
 E R0000096
 E R0000097
 E R0000098
 E R0000099
 E R0000100
 E R0000101
 E R0000102
 E R0000103
 E R0000104
 E R0000105
 E R0000106
 E R0000107
 E R0000108
 E R0000109
 E R0000110
 E R0000111
 E R0000112
 E R0000113
 E R0000114
 E R0000115
 E R0000116
 E R0000117
 E R0000118
 E R0000119
 E R0000120
 E R0000121
 E R0000122
 E R0000123
 E R0000124
 E R0000125
 E R0000126
 E R0000127
 E R0000128
 E R0000129
 E R0000130
 E R0000131
 E R0000132
 E R0000133
 E R0000134
 E R0000135
 E R0000136
 E R0000137
 E R0000138
 E R0000139
 E R0000140
 E R0000141
 E R0000142
 E R0000143
 E R0000144
 E R0000145
 E R0000146
 E R0000147
 E R0000148
 E R0000149
 E R0000150
 E R0000151
 E R0000152
 E R0000153
 E R0000154
 E R0000155
 E R0000156
 E R0000157
 E R0000158
 E R0000159
 E R0000160
 E R0000161
 E R0000162
 E R0000163
 E R0000164
 E R0000165
 E R0000166
 E R0000167
 E R0000168
 E R0000169
 E R0000170
 E R0000171
 E R0000172
 E R0000173
 E R0000174
 E R0000175
 E R0000176
 E R0000177
 E R0000178
 E R0000179
 E R0000180
 E R0000181
 E R0000182
 E R0000183
 E R0000184
 E R0000185
 E R0000186
 E R0000187
 E R0000188
 E R0000189
 E R0000190
 E R0000191
 E R0000192
 E R0000193
 E R0000194
 E R0000195
 E R0000196
 E R0000197
 E R0000198
 E R0000199
 E R0000200
 E R0000201
 E R0000202
 E R0000203
 E R0000204
COLUMNS
 c0 R0000093 1 R0000092 2
 c0 R0000002 -1
 c1 R0000093 2 R0000092 1
 c1 R0000003 -1
 c2 R0000093 1.5 R0000092 1.5
 c2 R0000004 -1
 c3 R0000000 -1 R0000005 1.1
 c3 R0000001 1
 c4 R0000099 1 R0000006 1
 c4 R0000001 -1
 c5 R0000094 -1 R0000007 -1
 c5 R0000002 1
 c6 R0000095 -1 R0000008 -1
 c6 R0000003 1
 c7 R0000096 -1 R0000009 -1
 c7 R0000004 1
 c8 R0000097 -1 R0000094 1
 c9 R0000098 -1 R0000095 1
 c10 R0000099 -1 R0000096 1
 c11 R0000098 1 R0000097 2
 c11 R0000007 -1
 c12 R0000098 2 R0000097 1
 c12 R0000008 -1
 c13 R0000098 1.5 R0000097 1.5
 c13 R0000009 -1
 c14 R0000010 1.1 R0000006 1
 c14 R0000005 -1
 c15 R0000105 1 R0000011 1
 c15 R0000006 -1
 c16 R0000100 -1 R0000012 -1
 c16 R0000007 1
 c17 R0000101 -1 R0000013 -1
 c17 R0000008 1
 c18 R0000102 -1 R0000014 -1
 c18 R0000009 1
 c19 R0000103 -1 R0000100 1
 c20 R0000104 -1 R0000101 1
 c21 R0000105 -1 R0000102 1
 c22 R0000104 1 R0000103 2
 c22 R0000012 -1
 c23 R0000104 2 R0000103 1
 c23 R0000013 -1
 c24 R0000104 3 R0000103 3
 c24 R0000014 -2
 c25 R0000015 1.1 R0000011 1
 c25 R0000010 -1
 c26 R0000111 1 R0000016 1
 c26 R0000011 -1
 c27 R0000106 -1 R0000017 -1
 c27 R0000012 1
 c28 R0000107 -1 R0000018 -1
 c28 R0000013 1
 c29 R0000108 -2 R0000019 -2
 c29 R0000014 2
 c30 R0000109 -1 R0000106 1
 c31 R0000110 -1 R0000107 1
 c32 R0000111 -2 R0000108 2
 c33 R0000110 1 R0000109 2
 c33 R0000017 -1
 c34 R0000110 2 R0000109 1
 c34 R0000018 -1
 c35 R0000110 3 R0000109 3
 c35 R0000019 -2
 c36 R0000020 1.1 R0000016 1
 c36 R0000015 -1
 c37 R0000117 1 R0000021 1
 c37 R0000016 -1
 c38 R0000112 -1 R0000022 -1
 c38 R0000017 1
 c39 R0000113 -1 R0000023 -1
 c39 R0000018 1
 c40 R0000114 -2 R0000024 -2
 c40 R0000019 2
 c41 R0000115 -1 R0000112 1
 c42 R0000116 -1 R0000113 1
 c43 R0000117 -2 R0000114 2
 c44 R0000116 2 R0000115 4
 c44 R0000022 -2
 c45 R0000116 4 R0000115 2
 c45 R0000023 -2
 c46 R0000116 6 R0000115 6
 c46 R0000024 -4
 c47 R0000025 1.1 R0000021 1
 c47 R0000020 -1
 c48 R0000123 1 R0000026 1
 c48 R0000021 -1
 c49 R0000118 -1 R0000027 -1
 c49 R0000022 1
 c50 R0000119 -1 R0000028 -1
 c50 R0000023 1
 c51 R0000120 -2 R0000029 -2
 c51 R0000024 2
 c52 R0000121 -1 R0000118 1
 c53 R0000122 -1 R0000119 1
 c54 R0000123 -2 R0000120 2
 c55 R0000122 2 R0000121 4
 c55 R0000027 -2
 c56 R0000122 4 R0000121 2
 c56 R0000028 -2
 c57 R0000122 6 R0000121 6
 c57 R0000029 -4
 c58 R0000030 1.1 R0000026 1
 c58 R0000025 -1
 c59 R0000129 1 R0000031 1
 c59 R0000026 -1
 c60 R0000124 -2 R0000032 -2
 c60 R0000027 2
 c61 R0000125 -2 R0000033 -2
 c61 R0000028 2
 c62 R0000126 -4 R0000034 -4
 c62 R0000029 4
 c63 R0000127 -2 R0000124 2
 c64 R0000128 -2 R0000125 2
 c65 R0000129 -4 R0000126 4
 c66 R0000128 2 R0000127 4
 c66 R0000032 -2
 c67 R0000128 4 R0000127 2
 c67 R0000033 -2
 c68 R0000128 6 R0000127 6
 c68 R0000034 -4
 c69 R0000035 1.1 R0000031 1
 c69 R0000030 -1
 c70 R0000135 1 R0000036 1
 c70 R0000031 -1
 c71 R0000130 -2 R0000037 -2
 c71 R0000032 2
 c72 R0000131 -2 R0000038 -2
 c72 R0000033 2
 c73 R0000132 -4 R0000039 -4
 c73 R0000034 4
 c74 R0000133 -2 R0000130 2
 c75 R0000134 -2 R0000131 2
 c76 R0000135 -4 R0000132 4
 c77 R0000134 4 R0000133 8
 c77 R0000037 -4
 c78 R0000134 8 R0000133 4
 c78 R0000038 -4
 c79 R0000134 12 R0000133 12
 c79 R0000039 -8
 c80 R0000040 1.1 R0000036 1
 c80 R0000035 -1
 c81 R0000141 1 R0000041 1
 c81 R0000036 -1
 c82 R0000136 -2 R0000042 -2
 c82 R0000037 2
 c83 R0000137 -2 R0000043 -2
 c83 R0000038 2
 c84 R0000138 -8 R0000044 -8
 c84 R0000039 8
 c85 R0000139 -2 R0000136 2
 c86 R0000140 -2 R0000137 2
 c87 R0000141 -8 R0000138 8
 c88 R0000140 2 R0000139 4
 c88 R0000042 -2
 c89 R0000140 4 R0000139 2
 c89 R0000043 -2
 c90 R0000140 12 R0000139 12
 c90 R0000044 -8
 c91 R0000046 1.1 R0000041 1
 c91 R0000040 -1
 c92 R0000147 1 R0000047 1
 c92 R0000041 -1
 c93 R0000142 -2 R0000048 -2
 c93 R0000042 2
 c94 R0000143 -1 R0000049 -1
 c94 R0000043 1
 c95 R0000144 -1 R0000050 -1
 c95 R0000044 1
 c96 R0000145 -64 R0000142 64
 c97 R0000146 -1 R0000143 1
 c98 R0000147 -1 R0000144 1
 c99 R0000146 2 R0000145 4
 c99 R0000048 -2
 c100 R0000146 4 R0000145 2
 c100 R0000049 -2
 c101 R0000146 6 R0000145 6
 c101 R0000050 -4
 c102 R0000045 1
 c103 R0000051 1.1 R0000047 1
 c103 R0000046 -1
 c104 R0000153 1 R0000052 1
 c104 R0000047 -1
 c105 R0000148 -2 R0000053 -2
 c105 R0000048 2
 c106 R0000149 -2 R0000054 -2
 c106 R0000049 2
 c107 R0000150 -4 R0000055 -4
 c107 R0000050 4
 c108 R0000151 -2 R0000148 2
 c109 R0000152 -2 R0000149 2
 c110 R0000153 -4 R0000150 4
 c111 R0000152 2 R0000151 4
 c111 R0000053 -2
 c112 R0000152 4 R0000151 2
 c112 R0000054 -2
 c113 R0000152 6 R0000151 6
 c113 R0000055 -4
 c114 R0000056 1.1 R0000052 1
 c114 R0000051 -1
 c115 R0000159 1 R0000057 1
 c115 R0000052 -1
 c116 R0000154 -2 R0000058 -2
 c116 R0000053 2
 c117 R0000155 -2 R0000059 -2
 c117 R0000054 2
 c118 R0000156 -4 R0000060 -4
 c118 R0000055 4
 c119 R0000157 -2 R0000154 2
 c120 R0000158 -2 R0000155 2
 c121 R0000159 -4 R0000156 4
 c122 R0000158 4 R0000157 8
 c122 R0000058 -4
 c123 R0000158 8 R0000157 4
 c123 R0000059 -4
 c124 R0000158 12 R0000157 12
 c124 R0000060 -8
 c125 R0000061 1.1 R0000057 1
 c125 R0000056 -1
 c126 R0000165 1 R0000062 1
 c126 R0000057 -1
 c127 R0000160 -4 R0000063 -4
 c127 R0000058 4
 c128 R0000161 -4 R0000064 -4
 c128 R0000059 4
 c129 R0000162 -8 R0000065 -8
 c129 R0000060 8
 c130 R0000163 -4 R0000160 4
 c131 R0000164 -4 R0000161 4
 c132 R0000165 -8 R0000162 8
 c133 R0000164 4 R0000163 8
 c133 R0000063 -4
 c134 R0000164 8 R0000163 4
 c134 R0000064 -4
 c135 R0000164 12 R0000163 12
 c135 R0000065 -8
 c136 R0000066 1.1 R0000062 1
 c136 R0000061 -1
 c137 R0000171 1 R0000067 1
 c137 R0000062 -1
 c138 R0000166 -8 R0000068 -8
 c138 R0000063 8
 c139 R0000167 -8 R0000069 -8
 c139 R0000064 8
 c140 R0000168 -8 R0000070 -8
 c140 R0000065 8
 c141 R0000169 -8 R0000166 8
 c142 R0000170 -8 R0000167 8
 c143 R0000171 -8 R0000168 8
 c144 R0000170 8 R0000169 16
 c144 R0000068 -8
 c145 R0000170 16 R0000169 8
 c145 R0000069 -8
 c146 R0000170 12 R0000169 12
 c146 R0000070 -8
 c147 R0000071 1.1 R0000067 1
 c147 R0000066 -1
 c148 R0000177 2 R0000072 2
 c148 R0000067 -2
 c149 R0000172 -16 R0000073 -16
 c149 R0000068 16
 c150 R0000173 -16 R0000074 -16
 c150 R0000069 16
 c151 R0000174 -8 R0000075 -8
 c151 R0000070 8
 c152 R0000175 -16 R0000172 16
 c153 R0000176 -16 R0000173 16
 c154 R0000177 -8 R0000174 8
 c155 R0000176 16 R0000175 32
 c155 R0000073 -16
 c156 R0000176 32 R0000175 16
 c156 R0000074 -16
 c157 R0000176 24 R0000175 24
 c157 R0000075 -16
 c158 R0000076 1.1 R0000072 1
 c158 R0000071 -1
 c159 R0000183 2 R0000077 2
 c159 R0000072 -2
 c160 R0000178 -32 R0000078 -32
 c160 R0000073 32
 c161 R0000179 -32 R0000079 -32
 c161 R0000074 32
 c162 R0000180 -16 R0000080 -16
 c162 R0000075 16
 c163 R0000181 -32 R0000178 32
 c164 R0000182 -32 R0000179 32
 c165 R0000183 -16 R0000180 16
 c166 R0000182 32 R0000181 64
 c166 R0000078 -32
 c167 R0000182 64 R0000181 32
 c167 R0000079 -32
 c168 R0000182 24 R0000181 24
 c168 R0000080 -16
 c169 R0000081 1.1 R0000077 1
 c169 R0000076 -1
 c170 R0000189 2 R0000082 2
 c170 R0000077 -2
 c171 R0000184 -64 R0000083 -64
 c171 R0000078 64
 c172 R0000185 -64 R0000084 -64
 c172 R0000079 64
 c173 R0000186 -16 R0000085 -16
 c173 R0000080 16
 c174 R0000187 -64 R0000184 64
 c175 R0000188 -64 R0000185 64
 c176 R0000189 -16 R0000186 16
 c177 R0000188 64 R0000187 128
 c177 R0000083 -64
 c178 R0000188 128 R0000187 64
 c178 R0000084 -64
 c179 R0000188 24 R0000187 24
 c179 R0000085 -16
 c180 R0000086 1.1 R0000082 1
 c180 R0000081 -1
 c181 R0000195 2 R0000087 2
 c181 R0000082 -2
 c182 R0000190 -128 R0000088 -128
 c182 R0000083 128
 c183 R0000191 -128 R0000089 -128
 c183 R0000084 128
 c184 R0000192 -16 R0000090 -16
 c184 R0000085 16
 c185 R0000193 -128 R0000190 128
 c186 R0000194 -128 R0000191 128
 c187 R0000195 -16 R0000192 16
 c188 R0000194 128 R0000193 256
 c188 R0000088 -128
 c189 R0000194 256 R0000193 128
 c189 R0000089 -128
 c190 R0000194 24 R0000193 24
 c190 R0000090 -16
 c191 R0000091 1.1 R0000087 1
 c191 R0000086 -1
 c192 R0000201 2 R0000087 -2
 c193 R0000196 -256 R0000088 256
 c194 R0000197 -256 R0000089 256
 c195 R0000198 -8 R0000090 8
 c196 R0000199 -256 R0000196 256
 c197 R0000200 -256 R0000197 256
 c198 R0000201 -8 R0000198 8
 c199 R0000203 3.2 R0000202 -25.6
 c199 R0000200 32 R0000199 64
 c200 R0000203 -409.6 R0000202 51.2
 c200 R0000200 1024 R0000199 512
 c201 R0000204 -512 R0000203 76.8
 c201 R0000202 76.8 R0000200 768
 c201 R0000199 768
 c202 R0000204 1 R0000091 -1
 c203 R0000092 1
 c204 R0000093 2
 c205 R0000094 16
 c206 R0000095 4
 c207 R0000096 256
 c208 R0000097 16
 c209 R0000098 4
 c210 R0000099 256
 c211 R0000100 16
 c212 R0000101 8
 c213 R0000102 256
 c214 R0000103 16
 c215 R0000104 8
 c216 R0000105 256
 c217 R0000106 16
 c218 R0000107 8
 c219 R0000108 512
 c220 R0000109 16
 c221 R0000110 8
 c222 R0000111 512
 c223 R0000112 16
 c224 R0000113 16
 c225 R0000114 512
 c226 R0000115 16
 c227 R0000116 16
 c228 R0000117 512
 c229 R0000118 32
 c230 R0000119 16
 c231 R0000120 512
 c232 R0000121 32
 c233 R0000122 16
 c234 R0000123 512
 c235 R0000124 32
 c236 R0000125 32
 c237 R0000126 1024
 c238 R0000127 32
 c239 R0000128 32
 c240 R0000129 1024
 c241 R0000130 32
 c242 R0000131 32
 c243 R0000132 1024
 c244 R0000133 32
 c245 R0000134 32
 c246 R0000135 1024
 c247 R0000136 64
 c248 R0000137 64
 c249 R0000138 2048
 c250 R0000139 64
 c251 R0000140 64
 c252 R0000141 2048
 c253 R0000142 2
 c254 R0000143 8
 c255 R0000144 128
 c256 R0000145 4
 c257 R0000146 8
 c258 R0000147 128
 c259 R0000148 8
 c260 R0000149 32
 c261 R0000150 512
 c262 R0000151 8
 c263 R0000152 32
 c264 R0000153 512
 c265 R0000154 8
 c266 R0000155 512
 c267 R0000156 1024
 c268 R0000157 8
 c269 R0000158 512
 c270 R0000159 1024
 c271 R0000160 16
 c272 R0000161 128
 c273 R0000162 1024
 c274 R0000163 16
 c275 R0000164 128
 c276 R0000165 1024
 c277 R0000166 32
 c278 R0000167 64
 c279 R0000168 2048
 c280 R0000169 32
 c281 R0000170 64
 c282 R0000171 2048
 c283 R0000172 64
 c284 R0000173 64
 c285 R0000174 2048
 c286 R0000175 64
 c287 R0000176 64
 c288 R0000177 2048
 c289 R0000178 128
 c290 R0000179 128
 c291 R0000180 4096
 c292 R0000181 128
 c293 R0000182 128
 c294 R0000183 4096
 c295 R0000184 256
 c296 R0000185 256
 c297 R0000186 4096
 c298 R0000187 256
 c299 R0000188 256
 c300 R0000189 4096
 c301 R0000190 512
 c302 R0000191 512
 c303 R0000192 4096
 c304 R0000193 512
 c305 R0000194 512
 c306 R0000195 4096
 c307 R0000196 512
 c308 R0000197 512
 c309 R0000198 2048
 c310 R0000199 512
 c311 R0000200 512
 c312 R0000201 2048
 c313 R0000202 512
 c314 R0000203 512
 c315 R0000204 512
RHS
 RHS1 R0000092 200 R0000093 100
 RHS1 R0000097 200 R0000098 100
 RHS1 R0000103 200 R0000104 100
 RHS1 R0000109 200 R0000110 100
 RHS1 R0000115 200 R0000116 100
 RHS1 R0000121 200 R0000122 100
 RHS1 R0000127 200 R0000128 100
 RHS1 R0000133 200 R0000134 100
 RHS1 R0000139 200 R0000140 100
 RHS1 R0000145 200 R0000146 100
 RHS1 R0000151 200 R0000152 100
 RHS1 R0000157 200 R0000158 100
 RHS1 R0000163 200 R0000164 100
 RHS1 R0000169 200 R0000170 100
 RHS1 R0000175 200 R0000176 100
 RHS1 R0000181 200 R0000182 100
 RHS1 R0000187 200 R0000188 100
 RHS1 R0000193 200 R0000194 100
 RHS1 R0000199 200 R0000200 100
ENDATA
